p cnf 39 106
a 19 7 0
e 1 2 3 4 5 6 8 9 10 11 12 13 14 15 16 17 18 20 21 22 23 24 25 26 27 28 29 30 31 32 33 34 35 36 37 38 39 0
3 1 0
3 2 0
-1 -2 -3 0
-1 2 -6 0
1 -2 -6 0
-1 -2 6 0
1 2 6 0
-7 5 0
-7 6 0
-5 -6 7 0
4 -7 -8 0
-4 7 -8 0
4 7 8 0
-4 -7 8 0
9 -3 0
9 -8 0
3 8 -9 0
-10 11 -12 0
10 -11 -12 0
-10 -11 12 0
10 11 12 0
13 9 0
13 12 0
-9 -12 -13 0
14 -1 -15 0
-14 1 -15 0
14 1 15 0
-14 -1 15 0
16 -15 0
16 7 0
15 -7 -16 0
17 7 0
17 -16 0
-7 16 -17 0
-6 17 -18 0
6 -17 -18 0
-6 -17 18 0
6 17 18 0
19 -2 0
19 -1 0
2 1 -19 0
-20 -2 0
-20 -10 0
2 10 20 0
-21 -15 0
-21 17 0
15 -17 21 0
22 -20 0
22 -21 0
20 21 -22 0
23 19 0
23 22 0
-19 -22 -23 0
24 18 0
24 23 0
-18 -23 -24 0
25 -26 -27 0
-25 26 -27 0
25 26 27 0
-25 -26 27 0
-29 15 0
-29 28 0
-15 -28 29 0
-30 7 0
-30 -29 0
-7 29 30 0
-31 -30 0
-31 -6 0
30 6 31 0
-32 -10 0
-32 2 0
10 -2 32 0
-33 25 0
-33 32 0
-25 -32 33 0
34 31 0
34 -33 0
-31 33 -34 0
35 -27 0
35 34 0
27 -34 -35 0
36 16 0
36 -25 0
-16 25 -36 0
-37 -35 0
-37 -36 0
35 36 37 0
-24 37 -38 0
24 -37 -38 0
-24 -37 38 0
24 37 38 0
13 -38 -39 0
-13 38 -39 0
13 38 39 0
-13 -38 39 0
-15 6 28 7 34 38 0
-16 -4 -3 -24 -17 -35 -39 0
-28 1 15 3 -2 32 4 0
-13 34 -20 -9 0
7 24 15 11 6 -32 0
-39 -26 -4 -16 0
27 8 33 23 28 18 -24 0
-22 -11 -14 34 0
-39 -29 20 -1 30 28 38 0
-26 13 2 -28 -34 30 29 27 0
39 0
